(set-logic HORN)
(declare-fun state (Int (Array Int Int) (Array Int Int) (Array Int Int) (Array Int Int) Int Int (Array Int Int) (Array Int Int) Int Int Int Int Int Int Int Int Int Int Int Int Int Int Int Int Int Int Int Int Int Int Int Int Int Int Int Int Int Int Int Bool Bool Bool Bool Bool (Array Int Int) Int) Bool)
(assert (forall ((|hhv_ULTIMATE.start_L15-2_0_Int| Int) (|hhv_ULTIMATE.start_L15-2_1_Array_Int_Int| (Array Int Int)) (|hhv_ULTIMATE.start_L15-2_2_Array_Int_Int| (Array Int Int)) (|hhv_ULTIMATE.start_L15-2_3_Array_Int_Array_Int_Int| (Array Int Int)) (|hhv_ULTIMATE.start_L15-2_4_Array_Int_Array_Int_Int| (Array Int Int)) (|hhv_ULTIMATE.start_L15-2_5_Int| Int) (|hhv_ULTIMATE.start_L15-2_6_Int| Int) (|hhv_ULTIMATE.start_L15-2_7_Array_Int_Int| (Array Int Int)) (|hhv_ULTIMATE.start_L15-2_8_Array_Int_Int| (Array Int Int)) (|hhv_ULTIMATE.start_L15-2_9_Int| Int) (|hhv_ULTIMATE.start_L15-2_10_Int| Int) (|hhv_ULTIMATE.start_L15-2_11_Int| Int) (|hhv_ULTIMATE.start_L15-2_12_Int| Int) (|hhv_ULTIMATE.start_L15-2_13_Int| Int) (|hhv_ULTIMATE.start_L15-2_14_Int| Int) (|hhv_ULTIMATE.start_L15-2_15_Int| Int) (|hhv_ULTIMATE.start_L15-2_16_Int| Int) (|hhv_ULTIMATE.start_L15-2_17_Int| Int) (|hhv_ULTIMATE.start_L15-2_18_Int| Int) (|hhv_ULTIMATE.start_L15-2_19_Int| Int) (|hhv_ULTIMATE.start_L15-2_20_Int| Int) (|hhv_ULTIMATE.start_L15-2_21_Int| Int) (|hhv_ULTIMATE.start_L15-2_22_Int| Int) (|hhv_ULTIMATE.start_L15-2_23_Int| Int) (|hhv_ULTIMATE.start_L15-2_24_Int| Int) (|hhv_ULTIMATE.start_L15-2_25_Int| Int) (|hhv_ULTIMATE.start_L15-2_26_Int| Int) (|hhv_ULTIMATE.start_L15-2_27_Int| Int) (|hhv_ULTIMATE.start_L15-2_28_Int| Int) (|hhv_ULTIMATE.start_L15-2_29_Int| Int) (|hhv_ULTIMATE.start_L15-2_30_Int| Int) (|hhv_ULTIMATE.start_L15-2_31_Int| Int) (|hbv_ULTIMATE.start_L12-14_32_Int| Int) (|hhv_ULTIMATE.start_L15-2_33_Int| Int) (|hhv_ULTIMATE.start_L15-2_34_Int| Int) (|hhv_ULTIMATE.start_L15-2_35_Int| Int) (|hhv_ULTIMATE.start_L15-2_36_Int| Int) (|hhv_ULTIMATE.start_L15-2_37_Int| Int) (|hhv_ULTIMATE.start_L15-2_38_Int| Int) (|hhv_ULTIMATE.start_L15-2_39_Int| Int) (|hhv_ULTIMATE.start_L15-2_40_Bool| Bool) (|.loc.5| Bool) (|.loc.6| Bool) (|.loc.7| Bool) (|.loc.8| Bool) (|hbv_ULTIMATE.start_L-1_1_Array_Int_Int| (Array Int Int)) (|hbv_ULTIMATE.start_L15_32_Int| Int) (|.x.1225| Int) (|.x.1227| (Array Int Int)) (|.x.1229| (Array Int Int)) (|.x.1231| Int) (|.x.1235| Int) (|.x.1233| (Array Int Int)) (|.x.1239| Int) (|.x.1250| Int) (|.x.1241| Int) (|.x.1242| Int) (|.x.1248| Int) (|.x.1246| Int) (|.x.1257| Int) (|.x.1258| Int) (|hhv_ULTIMATE.start_ULTIMATE.startEXIT_40_Bool| Bool) (|.x.1253| Int) (|.x.1243| Int) (|.x.1236| Int) (|.x.1226| (Array Int Int)) (|.x.1259| Int) (|.loc.9| Bool) (|.loc.11| Bool) (|.loc.10| Bool) (|.x.1247| Int) (|.x.1249| Int) (|.x.1245| Int) (|.x.1238| Int) (|.x.1237| Int) (|.x.1252| Int) (|.x.1260| Int) (|.x.1256| Int) (|.x.1228| (Array Int Int)) (|.x.1251| Int) (|.x.1255| Int) (|.x.1244| Int) (|.loc.12| Bool) (|.x.1254| Int) (|.x.1261| Int) (|.x.1240| Int) (|.x.1262| Int) (|.x.1264| Int) (|.x.1263| Int) (|.x.1230| Int) (|.x.1234| Int) (|.x.1232| (Array Int Int)) (|.xtv.1| (Array Int Int)) (|.xtv.2| Int)) (=> (and (and (and (and (not .loc.6) (not .loc.5)) (not .loc.7)) (not .loc.8)) (and (and (and (and (and (= hhv_ULTIMATE.start_L15-2_1_Array_Int_Int hhv_ULTIMATE.start_L15-2_2_Array_Int_Int) (= hhv_ULTIMATE.start_L15-2_7_Array_Int_Int hhv_ULTIMATE.start_L15-2_8_Array_Int_Int)) (= hhv_ULTIMATE.start_L15-2_5_Int hhv_ULTIMATE.start_L15-2_6_Int)) (not hhv_ULTIMATE.start_L15-2_40_Bool)) (= hhv_ULTIMATE.start_L15-2_3_Array_Int_Array_Int_Int hhv_ULTIMATE.start_L15-2_4_Array_Int_Array_Int_Int)) (= hhv_ULTIMATE.start_L15-2_9_Int hhv_ULTIMATE.start_L15-2_10_Int))) (state |hhv_ULTIMATE.start_L15-2_0_Int| |hhv_ULTIMATE.start_L15-2_1_Array_Int_Int| |hhv_ULTIMATE.start_L15-2_2_Array_Int_Int| |hhv_ULTIMATE.start_L15-2_3_Array_Int_Array_Int_Int| |hhv_ULTIMATE.start_L15-2_4_Array_Int_Array_Int_Int| |hhv_ULTIMATE.start_L15-2_5_Int| |hhv_ULTIMATE.start_L15-2_6_Int| |hhv_ULTIMATE.start_L15-2_7_Array_Int_Int| |hhv_ULTIMATE.start_L15-2_8_Array_Int_Int| |hhv_ULTIMATE.start_L15-2_9_Int| |hhv_ULTIMATE.start_L15-2_10_Int| |hhv_ULTIMATE.start_L15-2_11_Int| |hhv_ULTIMATE.start_L15-2_12_Int| |hhv_ULTIMATE.start_L15-2_13_Int| |hhv_ULTIMATE.start_L15-2_14_Int| |hhv_ULTIMATE.start_L15-2_15_Int| |hhv_ULTIMATE.start_L15-2_16_Int| |hhv_ULTIMATE.start_L15-2_17_Int| |hhv_ULTIMATE.start_L15-2_18_Int| |hhv_ULTIMATE.start_L15-2_19_Int| |hhv_ULTIMATE.start_L15-2_20_Int| |hhv_ULTIMATE.start_L15-2_21_Int| |hhv_ULTIMATE.start_L15-2_22_Int| |hhv_ULTIMATE.start_L15-2_23_Int| |hhv_ULTIMATE.start_L15-2_24_Int| |hhv_ULTIMATE.start_L15-2_25_Int| |hhv_ULTIMATE.start_L15-2_26_Int| |hhv_ULTIMATE.start_L15-2_27_Int| |hhv_ULTIMATE.start_L15-2_28_Int| |hhv_ULTIMATE.start_L15-2_29_Int| |hhv_ULTIMATE.start_L15-2_30_Int| |hhv_ULTIMATE.start_L15-2_31_Int| |hbv_ULTIMATE.start_L12-14_32_Int| |hhv_ULTIMATE.start_L15-2_33_Int| |hhv_ULTIMATE.start_L15-2_34_Int| |hhv_ULTIMATE.start_L15-2_35_Int| |hhv_ULTIMATE.start_L15-2_36_Int| |hhv_ULTIMATE.start_L15-2_37_Int| |hhv_ULTIMATE.start_L15-2_38_Int| |hhv_ULTIMATE.start_L15-2_39_Int| |hhv_ULTIMATE.start_L15-2_40_Bool| |.loc.5| |.loc.6| |.loc.7| |.loc.8| |hbv_ULTIMATE.start_L-1_1_Array_Int_Int| |hbv_ULTIMATE.start_L15_32_Int|))))
(assert (forall ((|hhv_ULTIMATE.start_L15-2_0_Int| Int) (|hhv_ULTIMATE.start_L15-2_1_Array_Int_Int| (Array Int Int)) (|hhv_ULTIMATE.start_L15-2_2_Array_Int_Int| (Array Int Int)) (|hhv_ULTIMATE.start_L15-2_3_Array_Int_Array_Int_Int| (Array Int Int)) (|hhv_ULTIMATE.start_L15-2_4_Array_Int_Array_Int_Int| (Array Int Int)) (|hhv_ULTIMATE.start_L15-2_5_Int| Int) (|hhv_ULTIMATE.start_L15-2_6_Int| Int) (|hhv_ULTIMATE.start_L15-2_7_Array_Int_Int| (Array Int Int)) (|hhv_ULTIMATE.start_L15-2_8_Array_Int_Int| (Array Int Int)) (|hhv_ULTIMATE.start_L15-2_9_Int| Int) (|hhv_ULTIMATE.start_L15-2_10_Int| Int) (|hhv_ULTIMATE.start_L15-2_11_Int| Int) (|hhv_ULTIMATE.start_L15-2_12_Int| Int) (|hhv_ULTIMATE.start_L15-2_13_Int| Int) (|hhv_ULTIMATE.start_L15-2_14_Int| Int) (|hhv_ULTIMATE.start_L15-2_15_Int| Int) (|hhv_ULTIMATE.start_L15-2_16_Int| Int) (|hhv_ULTIMATE.start_L15-2_17_Int| Int) (|hhv_ULTIMATE.start_L15-2_18_Int| Int) (|hhv_ULTIMATE.start_L15-2_19_Int| Int) (|hhv_ULTIMATE.start_L15-2_20_Int| Int) (|hhv_ULTIMATE.start_L15-2_21_Int| Int) (|hhv_ULTIMATE.start_L15-2_22_Int| Int) (|hhv_ULTIMATE.start_L15-2_23_Int| Int) (|hhv_ULTIMATE.start_L15-2_24_Int| Int) (|hhv_ULTIMATE.start_L15-2_25_Int| Int) (|hhv_ULTIMATE.start_L15-2_26_Int| Int) (|hhv_ULTIMATE.start_L15-2_27_Int| Int) (|hhv_ULTIMATE.start_L15-2_28_Int| Int) (|hhv_ULTIMATE.start_L15-2_29_Int| Int) (|hhv_ULTIMATE.start_L15-2_30_Int| Int) (|hhv_ULTIMATE.start_L15-2_31_Int| Int) (|hbv_ULTIMATE.start_L12-14_32_Int| Int) (|hhv_ULTIMATE.start_L15-2_33_Int| Int) (|hhv_ULTIMATE.start_L15-2_34_Int| Int) (|hhv_ULTIMATE.start_L15-2_35_Int| Int) (|hhv_ULTIMATE.start_L15-2_36_Int| Int) (|hhv_ULTIMATE.start_L15-2_37_Int| Int) (|hhv_ULTIMATE.start_L15-2_38_Int| Int) (|hhv_ULTIMATE.start_L15-2_39_Int| Int) (|hhv_ULTIMATE.start_L15-2_40_Bool| Bool) (|.loc.5| Bool) (|.loc.6| Bool) (|.loc.7| Bool) (|.loc.8| Bool) (|hbv_ULTIMATE.start_L-1_1_Array_Int_Int| (Array Int Int)) (|hbv_ULTIMATE.start_L15_32_Int| Int) (|.x.1225| Int) (|.x.1227| (Array Int Int)) (|.x.1229| (Array Int Int)) (|.x.1231| Int) (|.x.1235| Int) (|.x.1233| (Array Int Int)) (|.x.1239| Int) (|.x.1250| Int) (|.x.1241| Int) (|.x.1242| Int) (|.x.1248| Int) (|.x.1246| Int) (|.x.1257| Int) (|.x.1258| Int) (|hhv_ULTIMATE.start_ULTIMATE.startEXIT_40_Bool| Bool) (|.x.1253| Int) (|.x.1243| Int) (|.x.1236| Int) (|.x.1226| (Array Int Int)) (|.x.1259| Int) (|.loc.9| Bool) (|.loc.11| Bool) (|.loc.10| Bool) (|.x.1247| Int) (|.x.1249| Int) (|.x.1245| Int) (|.x.1238| Int) (|.x.1237| Int) (|.x.1252| Int) (|.x.1260| Int) (|.x.1256| Int) (|.x.1228| (Array Int Int)) (|.x.1251| Int) (|.x.1255| Int) (|.x.1244| Int) (|.loc.12| Bool) (|.x.1254| Int) (|.x.1261| Int) (|.x.1240| Int) (|.x.1262| Int) (|.x.1264| Int) (|.x.1263| Int) (|.x.1230| Int) (|.x.1234| Int) (|.x.1232| (Array Int Int)) (|.xtv.1| (Array Int Int)) (|.xtv.2| Int)) (=> (and (state |hhv_ULTIMATE.start_L15-2_0_Int| |hhv_ULTIMATE.start_L15-2_1_Array_Int_Int| |hhv_ULTIMATE.start_L15-2_2_Array_Int_Int| |hhv_ULTIMATE.start_L15-2_3_Array_Int_Array_Int_Int| |hhv_ULTIMATE.start_L15-2_4_Array_Int_Array_Int_Int| |hhv_ULTIMATE.start_L15-2_5_Int| |hhv_ULTIMATE.start_L15-2_6_Int| |hhv_ULTIMATE.start_L15-2_7_Array_Int_Int| |hhv_ULTIMATE.start_L15-2_8_Array_Int_Int| |hhv_ULTIMATE.start_L15-2_9_Int| |hhv_ULTIMATE.start_L15-2_10_Int| |hhv_ULTIMATE.start_L15-2_11_Int| |hhv_ULTIMATE.start_L15-2_12_Int| |hhv_ULTIMATE.start_L15-2_13_Int| |hhv_ULTIMATE.start_L15-2_14_Int| |hhv_ULTIMATE.start_L15-2_15_Int| |hhv_ULTIMATE.start_L15-2_16_Int| |hhv_ULTIMATE.start_L15-2_17_Int| |hhv_ULTIMATE.start_L15-2_18_Int| |hhv_ULTIMATE.start_L15-2_19_Int| |hhv_ULTIMATE.start_L15-2_20_Int| |hhv_ULTIMATE.start_L15-2_21_Int| |hhv_ULTIMATE.start_L15-2_22_Int| |hhv_ULTIMATE.start_L15-2_23_Int| |hhv_ULTIMATE.start_L15-2_24_Int| |hhv_ULTIMATE.start_L15-2_25_Int| |hhv_ULTIMATE.start_L15-2_26_Int| |hhv_ULTIMATE.start_L15-2_27_Int| |hhv_ULTIMATE.start_L15-2_28_Int| |hhv_ULTIMATE.start_L15-2_29_Int| |hhv_ULTIMATE.start_L15-2_30_Int| |hhv_ULTIMATE.start_L15-2_31_Int| |hbv_ULTIMATE.start_L12-14_32_Int| |hhv_ULTIMATE.start_L15-2_33_Int| |hhv_ULTIMATE.start_L15-2_34_Int| |hhv_ULTIMATE.start_L15-2_35_Int| |hhv_ULTIMATE.start_L15-2_36_Int| |hhv_ULTIMATE.start_L15-2_37_Int| |hhv_ULTIMATE.start_L15-2_38_Int| |hhv_ULTIMATE.start_L15-2_39_Int| |hhv_ULTIMATE.start_L15-2_40_Bool| |.loc.5| |.loc.6| |.loc.7| |.loc.8| |hbv_ULTIMATE.start_L-1_1_Array_Int_Int| |hbv_ULTIMATE.start_L15_32_Int|) (let ((.def_57 (not .loc.6))) (let ((.def_58 (not .loc.5))) (let ((.def_60 (not .loc.7))) (let ((.def_62 (not .loc.8))) (let ((.def_103 (= .x.1242 .x.1248))) (let ((.def_106 (= .x.1248 .x.1246))) (let ((.def_113 (<= .x.1257 2147483647))) (let ((.def_117 (<= (- 2147483648) .x.1257))) (let ((.def_118 (and (and (= .x.1242 .x.1257) .def_113) .def_117))) (let ((.def_121 (= hhv_ULTIMATE.start_L15-2_33_Int .x.1258))) (let ((.def_125 (= hhv_ULTIMATE.start_L15-2_28_Int .x.1253))) (let ((.def_128 (= hhv_ULTIMATE.start_L15-2_18_Int .x.1243))) (let ((.def_131 (= hhv_ULTIMATE.start_L15-2_11_Int .x.1236))) (let ((.def_134 (= hhv_ULTIMATE.start_L15-2_1_Array_Int_Int .x.1226))) (let ((.def_146 (ite (<= (+ hhv_ULTIMATE.start_L15-2_13_Int (* (- 4294967296) (to_int (* (/ 1 4294967296) (to_real hhv_ULTIMATE.start_L15-2_13_Int))))) 2147483647) (+ hhv_ULTIMATE.start_L15-2_13_Int (* (- 4294967296) (to_int (* (/ 1 4294967296) (to_real hhv_ULTIMATE.start_L15-2_13_Int))))) (+ (- 4294967296) (+ hhv_ULTIMATE.start_L15-2_13_Int (* (- 4294967296) (to_int (* (/ 1 4294967296) (to_real hhv_ULTIMATE.start_L15-2_13_Int))))))))) (let ((.def_148 (or hhv_ULTIMATE.start_L15-2_40_Bool (= .x.1257 .def_146)))) (let ((.def_162 (= hhv_ULTIMATE.start_L15-2_40_Bool hhv_ULTIMATE.start_ULTIMATE.startEXIT_40_Bool))) (let ((.def_165 (= hhv_ULTIMATE.start_L15-2_34_Int .x.1259))) (let ((.def_167 (= hbv_ULTIMATE.start_L12-14_32_Int .x.1257))) (let ((.def_169 (= hhv_ULTIMATE.start_L15-2_17_Int .x.1242))) (let ((.def_174 (not .loc.9))) (let ((.def_178 (not .loc.10))) (let ((.def_187 (and .def_134 (and .def_131 (and .def_128 (and .def_121 .def_125)))))) (let ((.def_193 (not .loc.11))) (let ((.def_226 (and .loc.5 .def_187))) (let ((.def_236 (<= 10000 hhv_ULTIMATE.start_L15-2_22_Int))) (let ((.def_237 (or hhv_ULTIMATE.start_L15-2_40_Bool .def_236))) (let ((.def_241 (= hhv_ULTIMATE.start_L15-2_22_Int .x.1247))) (let ((.def_243 (= hhv_ULTIMATE.start_L15-2_24_Int .x.1249))) (let ((.def_246 (= hhv_ULTIMATE.start_L15-2_20_Int .x.1245))) (let ((.def_249 (= hhv_ULTIMATE.start_L15-2_13_Int .x.1238))) (let ((.def_264 (or hhv_ULTIMATE.start_ULTIMATE.startEXIT_40_Bool (= (+ hhv_ULTIMATE.start_L15-2_22_Int (* (- 1) .x.1247)) (- 1))))) (let ((.def_281 (or hhv_ULTIMATE.start_L15-2_40_Bool (and (= (+ hhv_ULTIMATE.start_L15-2_13_Int (+ hhv_ULTIMATE.start_L15-2_22_Int (+ (* (- 1) .x.1238) (select (select hhv_ULTIMATE.start_L15-2_3_Array_Int_Array_Int_Int hhv_ULTIMATE.start_L15-2_27_Int) (+ hhv_ULTIMATE.start_L15-2_12_Int (* 4 hhv_ULTIMATE.start_L15-2_22_Int)))))) 0) (not .def_236))))) (let ((.def_285 (= hhv_ULTIMATE.start_L15-2_12_Int .x.1237))) (let ((.def_287 (= hhv_ULTIMATE.start_L15-2_27_Int .x.1252))) (let ((.def_289 (= hhv_ULTIMATE.start_L15-2_35_Int .x.1260))) (let ((.def_291 (= hhv_ULTIMATE.start_L15-2_31_Int .x.1256))) (let ((.def_293 (and .def_287 (and .def_289 .def_291)))) (let ((.def_296 (= hhv_ULTIMATE.start_L15-2_3_Array_Int_Array_Int_Int .x.1228))) (let ((.def_301 (select hhv_ULTIMATE.start_L15-2_3_Array_Int_Array_Int_Int hhv_ULTIMATE.start_L15-2_11_Int))) (let ((.def_305 (= .x.1238 0))) (let ((.def_307 (= .x.1252 .x.1260))) (let ((.def_309 (= .x.1247 0))) (let ((.def_311 (= hhv_ULTIMATE.start_L15-2_11_Int .x.1260))) (let ((.def_313 (= hhv_ULTIMATE.start_L15-2_28_Int .x.1256))) (let ((.def_315 (= .x.1237 .x.1256))) (let ((.def_357 (<= 9999 hhv_ULTIMATE.start_L15-2_26_Int))) (let ((.def_360 (and .def_291 (and .def_121 .def_289)))) (let ((.def_369 (and .def_131 (and .def_285 (and .def_249 (and .def_128 (and .def_246 (and .def_241 (and .def_243 (and .def_287 (and .def_125 .def_360))))))))))) (let ((.def_386 (= hhv_ULTIMATE.start_L15-2_26_Int .x.1251))) (let ((.def_388 (= hhv_ULTIMATE.start_L15-2_30_Int .x.1255))) (let ((.def_391 (= hhv_ULTIMATE.start_L15-2_19_Int .x.1244))) (let ((.def_424 (not .loc.12))) (let ((.def_430 (= hhv_ULTIMATE.start_L15-2_29_Int .x.1254))) (let ((.def_432 (= hhv_ULTIMATE.start_L15-2_36_Int .x.1261))) (let ((.def_434 (= hhv_ULTIMATE.start_L15-2_21_Int .x.1246))) (let ((.def_437 (= hhv_ULTIMATE.start_L15-2_15_Int .x.1240))) (let ((.def_518 (and .def_386 (and .def_287 (and .def_125 (and .def_430 (and .def_388 (and .def_291 (and .def_121 (and .def_289 .def_432)))))))))) (let ((.def_568 (= hhv_ULTIMATE.start_L15-2_23_Int .x.1248))) (let ((.def_570 (= hhv_ULTIMATE.start_L15-2_37_Int .x.1262))) (let ((.def_572 (= hhv_ULTIMATE.start_L15-2_39_Int .x.1264))) (let ((.def_574 (= hhv_ULTIMATE.start_L15-2_38_Int .x.1263))) (let ((.def_576 (and .def_570 (and .def_572 .def_574)))) (let ((.def_587 (select hhv_ULTIMATE.start_L15-2_3_Array_Int_Array_Int_Int .x.1236))) (let ((.def_655 (and .loc.5 (and .def_134 (and .def_296 (and .def_131 (and .def_285 (and .def_249 (and .def_437 (and .def_128 (and .def_391 (and .def_246 (and .def_434 (and .def_241 (and .def_568 (and .def_243 (and .def_386 (and .def_287 (and .def_125 (and .def_430 (and .def_388 (and .def_291 (and .def_121 (and .def_289 (and .def_432 (and .def_570 (and .def_574 (and hhv_ULTIMATE.start_L15-2_40_Bool .def_572)))))))))))))))))))))))))))) (let ((.def_668 (and .def_432 .def_576))) (let ((.def_676 (and .def_386 (and .def_287 (and .def_125 (and .def_430 (and .def_388 (and .def_291 (and .def_121 (and .def_289 .def_668)))))))))) (let ((.def_687 (and .def_131 (and .def_285 (and .def_249 (and .def_437 (and .def_128 (and .def_391 (and .def_246 (and .def_434 (and .def_241 (and .def_568 (and .def_243 .def_676))))))))))))) (let ((.def_690 (and .loc.5 (and .def_134 (and .def_296 .def_687))))) (let ((.def_772 (<= 10000 hhv_ULTIMATE.start_L15-2_25_Int))) (and (and (= hhv_ULTIMATE.start_L15-2_0_Int .x.1225) (and (= hhv_ULTIMATE.start_L15-2_2_Array_Int_Int .x.1227) (and (= hhv_ULTIMATE.start_L15-2_4_Array_Int_Array_Int_Int .x.1229) (and (= hhv_ULTIMATE.start_L15-2_6_Int .x.1231) (and (= hhv_ULTIMATE.start_L15-2_10_Int .x.1235) (= hhv_ULTIMATE.start_L15-2_8_Array_Int_Int .x.1233)))))) (or (and (or (and (and (= hhv_ULTIMATE.start_L15-2_14_Int .x.1239) (and (= hhv_ULTIMATE.start_L15-2_25_Int .x.1250) (= hhv_ULTIMATE.start_L15-2_16_Int .x.1241))) (or (or (or (or (or (or (or (and (or (or (or (or (and (or (and (or (or (and (or (and (or (and (or (or (and .loc.6 (or (or (and (or (and .def_58 (and (or (not .def_103) (or hhv_ULTIMATE.start_L15-2_40_Bool (not .def_106))) (and (or hhv_ULTIMATE.start_L15-2_40_Bool .def_118) (and (and (and (and (and (and .def_121 hhv_ULTIMATE.start_ULTIMATE.startEXIT_40_Bool) .def_125) .def_128) .def_131) .def_134) .def_148)))) (and (or hhv_ULTIMATE.start_L15-2_40_Bool (and (= .x.1226 (store hhv_ULTIMATE.start_L15-2_1_Array_Int_Int hhv_ULTIMATE.start_L15-2_11_Int 0)) (= .x.1258 1))) (and (and (and (and (and .loc.5 (or hhv_ULTIMATE.start_ULTIMATE.startEXIT_40_Bool (= .x.1258 .x.1243))) .def_162) .def_165) .def_167) .def_169))) (and (and .def_174 .loc.11) .def_178)) (and (or .def_118 hhv_ULTIMATE.start_ULTIMATE.startEXIT_40_Bool) (and (or hhv_ULTIMATE.start_ULTIMATE.startEXIT_40_Bool (and .def_103 .def_106)) (and (and .def_162 (and .loc.10 (and .loc.9 (and .def_58 (and .def_148 .def_187))))) .def_193)))) (and .def_193 (and .loc.10 (and .loc.9 (and .def_58 (and .def_148 (and .def_134 (and .def_131 (and .def_128 (and .def_125 (and .def_121 (and hhv_ULTIMATE.start_L15-2_40_Bool hhv_ULTIMATE.start_ULTIMATE.startEXIT_40_Bool))))))))))))) (and .def_57 (and .def_193 (and .def_169 (and .def_167 (and .def_165 (and .def_162 (and .def_174 (and .loc.10 (and .loc.5 (and .def_134 (and .def_131 (and .def_128 (and .def_125 (and hhv_ULTIMATE.start_L15-2_40_Bool .def_121))))))))))))))) (and (and .def_57 (and .def_193 (and .def_169 (and .def_167 (and .def_165 (and .def_162 (and .def_174 (and .loc.10 .def_226)))))))) .def_237)) (and (and (and .def_241 .def_243) .def_246) .def_249)) (and (and (and .def_57 (and .def_193 (and .def_169 (and .def_167 (and .def_165 (and .def_162 (and .def_178 (and .loc.9 .def_226)))))))) .def_264) .def_281)) (and (and .def_285 .def_293) .def_296)) (and (or hhv_ULTIMATE.start_L15-2_40_Bool (and (and (and (and (and (and (= .x.1228 (store hhv_ULTIMATE.start_L15-2_3_Array_Int_Array_Int_Int hhv_ULTIMATE.start_L15-2_11_Int (store .def_301 (+ hhv_ULTIMATE.start_L15-2_28_Int 39996) hhv_ULTIMATE.start_L15-2_15_Int))) .def_305) .def_307) .def_309) .def_311) .def_313) .def_315)) (and .def_57 (and .def_193 (and .def_169 (and .def_165 (and .def_162 (and .def_178 (and .loc.9 (and .def_58 .def_187)))))))))) (and .loc.8 .def_60)) (and .def_62 (and .def_193 (and .def_169 (and .def_167 (and .def_165 (and .def_162 (and .def_178 (and .def_174 (and .loc.7 (and .loc.6 (and .loc.5 (and .def_134 (and .def_296 (and .def_131 (and .def_285 (and .def_249 (and .def_128 (and .def_246 (and .def_241 (and .def_243 (and .def_287 (and .def_125 (and .def_291 (and .def_121 (and hhv_ULTIMATE.start_L15-2_40_Bool .def_289)))))))))))))))))))))))))) (and (or hhv_ULTIMATE.start_L15-2_40_Bool .def_357) (and .def_62 (and .def_193 (and .def_169 (and .def_167 (and .def_165 (and .def_162 (and .def_178 (and .def_174 (and .loc.7 (and .loc.6 (and .loc.5 (and .def_134 (and .def_296 .def_369))))))))))))))) (and (and (and .def_386 .def_388) .def_391) .loc.12)) (and (or hhv_ULTIMATE.start_L15-2_40_Bool (and (= .x.1228 (store hhv_ULTIMATE.start_L15-2_3_Array_Int_Array_Int_Int hhv_ULTIMATE.start_L15-2_11_Int (store .def_301 (+ (* 4 hhv_ULTIMATE.start_L15-2_26_Int) hhv_ULTIMATE.start_L15-2_28_Int) (select .def_301 (+ (+ (* 4 hhv_ULTIMATE.start_L15-2_26_Int) hhv_ULTIMATE.start_L15-2_28_Int) 4))))) (not .def_357))) (and (or hhv_ULTIMATE.start_ULTIMATE.startEXIT_40_Bool (= (+ hhv_ULTIMATE.start_L15-2_26_Int (* (- 1) .x.1251)) (- 1))) (and (and .def_62 (and .def_169 (and .def_167 (and .def_165 (and .def_162 (and .loc.11 (and .loc.10 (and .loc.9 (and .loc.7 (and .loc.6 (and .loc.5 (and .def_134 .def_369)))))))))))) .def_424)))) (and (and (and .def_430 .def_432) .def_434) .def_437)) (and (or hhv_ULTIMATE.start_ULTIMATE.startEXIT_40_Bool (and (and .def_117 (and (and .def_113 (= .x.1246 .x.1257)) (= .x.1251 0))) (= .x.1240 (select (select .x.1228 .x.1236) .x.1253)))) (and .def_424 (and .def_62 (and .def_169 (and .def_165 (and .def_162 (and .loc.11 (and .loc.10 (and .loc.9 (and .def_58 (and .loc.7 (and .loc.6 (and .def_148 (and .def_134 (and .def_296 (and .def_131 (and .def_285 (and .def_249 (and .def_128 (and .def_391 (and .def_246 (and .def_241 (and .def_243 (and .def_287 (and .def_125 (and .def_360 .def_388))))))))))))))))))))))))))) (and .def_424 (and .def_62 (and .def_57 (and .def_169 (and .def_167 (and .def_165 (and .def_162 (and .def_174 (and .loc.11 (and .loc.10 (and .loc.7 (and .loc.5 (and .def_134 (and .def_296 (and .def_131 (and .def_285 (and .def_249 (and .def_437 (and .def_128 (and .def_391 (and .def_246 (and .def_434 (and .def_241 (and .def_243 (and .def_386 (and .def_287 (and .def_125 (and .def_430 (and .def_388 (and .def_291 (and .def_121 (and .def_289 (and hhv_ULTIMATE.start_L15-2_40_Bool .def_432)))))))))))))))))))))))))))))))))) (and .def_424 (and .def_62 (and .def_237 (and .def_57 (and .def_169 (and .def_167 (and .def_165 (and .def_162 (and .def_174 (and .loc.11 (and .loc.10 (and .loc.7 (and .loc.5 (and .def_134 (and .def_296 (and .def_131 (and .def_285 (and .def_249 (and .def_437 (and .def_128 (and .def_391 (and .def_246 (and .def_434 (and .def_241 (and .def_243 .def_518)))))))))))))))))))))))))) (and .def_424 (and .def_62 (and .def_281 (and .def_264 (and .def_57 (and .def_169 (and .def_167 (and .def_165 (and .def_162 (and .def_178 (and .loc.11 (and .loc.9 (and .loc.7 (and .loc.5 (and .def_134 (and .def_296 (and .def_131 (and .def_285 (and .def_437 (and .def_128 (and .def_391 (and .def_434 .def_518))))))))))))))))))))))) (and .def_568 .def_576)) (and (or hhv_ULTIMATE.start_L15-2_40_Bool (= hbv_ULTIMATE.start_L15_32_Int .def_146)) (and (or hhv_ULTIMATE.start_ULTIMATE.startEXIT_40_Bool (and .def_305 (and (and (and .def_307 (and .def_315 (and (and .def_309 (and (and (= .x.1253 .x.1256) (and (<= .x.1248 2147483647) (<= (- 2147483648) .x.1248))) (= .x.1228 (store hhv_ULTIMATE.start_L15-2_3_Array_Int_Array_Int_Int .x.1236 (store (store .def_587 .x.1253 (select .def_587 (+ .x.1253 4))) (+ .x.1253 4) .x.1240))))) (= .x.1236 .x.1260)))) (= .x.1240 (select .def_587 .x.1253))) (= hbv_ULTIMATE.start_L15_32_Int .x.1248)))) (and .def_424 (and .def_62 (and .def_57 (and .def_169 (and .def_165 (and .def_162 (and .def_178 (and .loc.11 (and .loc.9 (and .def_58 (and .loc.7 (and .def_134 (and .def_131 (and .def_128 (and .def_391 (and .def_434 (and .def_386 (and .def_125 (and .def_430 (and .def_388 (and .def_121 .def_432)))))))))))))))))))))))) (and .def_424 (and .def_62 (and .def_169 (and .def_167 (and .def_165 (and .def_162 (and .def_178 (and .def_174 (and .loc.11 (and .def_60 (and .loc.6 .def_655)))))))))))) (and .def_424 (and .def_62 (and .def_237 (and .def_169 (and .def_167 (and .def_165 (and .def_162 (and .def_178 (and .def_174 (and .loc.11 (and .def_60 (and .loc.6 .def_690))))))))))))) (and .def_424 (and .def_62 (and .def_281 (and .def_264 (and .def_193 (and .def_169 (and .def_167 (and .def_165 (and .def_162 (and .loc.10 (and .loc.9 (and .def_60 (and .loc.6 (and .loc.5 (and .def_134 (and .def_296 (and .def_131 (and .def_285 (and .def_437 (and .def_128 (and .def_391 (and .def_434 (and .def_568 .def_676)))))))))))))))))))))))) (and (or hhv_ULTIMATE.start_L15-2_40_Bool (and .def_311 (and .def_309 (and .def_315 (and .def_313 (and .def_305 .def_307)))))) (and .def_424 (and .def_62 (and .def_193 (and .def_169 (and .def_165 (and .def_162 (and .loc.10 (and .loc.9 (and .def_60 (and .def_58 (and .loc.6 (and .def_134 (and .def_296 (and .def_131 (and .def_437 (and .def_128 (and .def_391 (and .def_434 (and .def_568 (and .def_386 (and .def_125 (and .def_430 (and .def_388 (and .def_121 .def_668)))))))))))))))))))))))))) (and .def_424 (and .def_62 (and .def_57 (and .def_193 (and .def_169 (and .def_167 (and .def_165 (and .def_162 (and .def_174 (and .loc.10 (and .def_60 .def_655)))))))))))) (and (or hhv_ULTIMATE.start_L15-2_40_Bool .def_772) (and .def_424 (and .def_62 (and .def_57 (and .def_193 (and .def_169 (and .def_167 (and .def_165 (and .def_162 (and .def_174 (and .loc.10 (and .def_60 .def_690)))))))))))))) (and (or hhv_ULTIMATE.start_L15-2_40_Bool (and (and (and (= .x.1228 (store hhv_ULTIMATE.start_L15-2_3_Array_Int_Array_Int_Int hhv_ULTIMATE.start_L15-2_11_Int (store .def_301 (+ (* 4 hhv_ULTIMATE.start_L15-2_25_Int) hhv_ULTIMATE.start_L15-2_28_Int) hhv_ULTIMATE.start_L15-2_14_Int))) (<= (- 2147483648) hhv_ULTIMATE.start_L15-2_14_Int)) (<= hhv_ULTIMATE.start_L15-2_14_Int 2147483647)) (not .def_772))) (and (or hhv_ULTIMATE.start_ULTIMATE.startEXIT_40_Bool (= (+ hhv_ULTIMATE.start_L15-2_25_Int (* (- 1) .x.1250)) (- 1))) (and .def_424 (and .def_62 (and .def_57 (and .def_193 (and .def_169 (and .def_167 (and .def_165 (and .def_162 (and .def_178 (and .loc.9 (and .def_60 (and .loc.5 (and .def_134 .def_687)))))))))))))))) (and (= hhv_ULTIMATE.start_L15-2_5_Int .x.1230) (and (= hhv_ULTIMATE.start_L15-2_9_Int .x.1234) (= hhv_ULTIMATE.start_L15-2_7_Array_Int_Int .x.1232)))) (and (or hhv_ULTIMATE.start_L15-2_40_Bool (and (and (= .x.1230 0) (= .x.1234 0)) (= hbv_ULTIMATE.start_L-1_1_Array_Int_Int (store hhv_ULTIMATE.start_L15-2_1_Array_Int_Int 0 0)))) (and (or hhv_ULTIMATE.start_ULTIMATE.startEXIT_40_Bool (and (and (and (and (not (<= .x.1225 .x.1236)) (and (= .x.1250 0) (and (not (= .x.1236 0)) (= (select hbv_ULTIMATE.start_L-1_1_Array_Int_Int .x.1236) 0)))) (= .x.1226 (store hbv_ULTIMATE.start_L-1_1_Array_Int_Int .x.1236 1))) (= .x.1253 0)) (= .x.1232 (store hhv_ULTIMATE.start_L15-2_7_Array_Int_Int .x.1236 40000)))) (and .def_424 (and .def_62 (and .def_57 (and .def_193 (and .def_167 (and .def_162 (and .def_178 (and .loc.9 (and .def_60 (and .def_58 (and .def_296 (and .def_285 (and .def_249 (and .def_128 (and .def_246 (and .def_241 (and .def_243 .def_293)))))))))))))))))))))))))))))))))))))))))))))))))))))))))))))))))))))))))))))))))))))))))))) (state |.x.1225| |.x.1226| |.x.1227| |.x.1228| |.x.1229| |.x.1230| |.x.1231| |.x.1232| |.x.1233| |.x.1234| |.x.1235| |.x.1236| |.x.1237| |.x.1238| |.x.1239| |.x.1240| |.x.1241| |.x.1242| |.x.1243| |.x.1244| |.x.1245| |.x.1246| |.x.1247| |.x.1248| |.x.1249| |.x.1250| |.x.1251| |.x.1252| |.x.1253| |.x.1254| |.x.1255| |.x.1256| |.x.1257| |.x.1258| |.x.1259| |.x.1260| |.x.1261| |.x.1262| |.x.1263| |.x.1264| |hhv_ULTIMATE.start_ULTIMATE.startEXIT_40_Bool| |.loc.9| |.loc.10| |.loc.11| |.loc.12| |.xtv.1| |.xtv.2|))))
(assert (forall ((|hhv_ULTIMATE.start_L15-2_0_Int| Int) (|hhv_ULTIMATE.start_L15-2_1_Array_Int_Int| (Array Int Int)) (|hhv_ULTIMATE.start_L15-2_2_Array_Int_Int| (Array Int Int)) (|hhv_ULTIMATE.start_L15-2_3_Array_Int_Array_Int_Int| (Array Int Int)) (|hhv_ULTIMATE.start_L15-2_4_Array_Int_Array_Int_Int| (Array Int Int)) (|hhv_ULTIMATE.start_L15-2_5_Int| Int) (|hhv_ULTIMATE.start_L15-2_6_Int| Int) (|hhv_ULTIMATE.start_L15-2_7_Array_Int_Int| (Array Int Int)) (|hhv_ULTIMATE.start_L15-2_8_Array_Int_Int| (Array Int Int)) (|hhv_ULTIMATE.start_L15-2_9_Int| Int) (|hhv_ULTIMATE.start_L15-2_10_Int| Int) (|hhv_ULTIMATE.start_L15-2_11_Int| Int) (|hhv_ULTIMATE.start_L15-2_12_Int| Int) (|hhv_ULTIMATE.start_L15-2_13_Int| Int) (|hhv_ULTIMATE.start_L15-2_14_Int| Int) (|hhv_ULTIMATE.start_L15-2_15_Int| Int) (|hhv_ULTIMATE.start_L15-2_16_Int| Int) (|hhv_ULTIMATE.start_L15-2_17_Int| Int) (|hhv_ULTIMATE.start_L15-2_18_Int| Int) (|hhv_ULTIMATE.start_L15-2_19_Int| Int) (|hhv_ULTIMATE.start_L15-2_20_Int| Int) (|hhv_ULTIMATE.start_L15-2_21_Int| Int) (|hhv_ULTIMATE.start_L15-2_22_Int| Int) (|hhv_ULTIMATE.start_L15-2_23_Int| Int) (|hhv_ULTIMATE.start_L15-2_24_Int| Int) (|hhv_ULTIMATE.start_L15-2_25_Int| Int) (|hhv_ULTIMATE.start_L15-2_26_Int| Int) (|hhv_ULTIMATE.start_L15-2_27_Int| Int) (|hhv_ULTIMATE.start_L15-2_28_Int| Int) (|hhv_ULTIMATE.start_L15-2_29_Int| Int) (|hhv_ULTIMATE.start_L15-2_30_Int| Int) (|hhv_ULTIMATE.start_L15-2_31_Int| Int) (|hbv_ULTIMATE.start_L12-14_32_Int| Int) (|hhv_ULTIMATE.start_L15-2_33_Int| Int) (|hhv_ULTIMATE.start_L15-2_34_Int| Int) (|hhv_ULTIMATE.start_L15-2_35_Int| Int) (|hhv_ULTIMATE.start_L15-2_36_Int| Int) (|hhv_ULTIMATE.start_L15-2_37_Int| Int) (|hhv_ULTIMATE.start_L15-2_38_Int| Int) (|hhv_ULTIMATE.start_L15-2_39_Int| Int) (|hhv_ULTIMATE.start_L15-2_40_Bool| Bool) (|.loc.5| Bool) (|.loc.6| Bool) (|.loc.7| Bool) (|.loc.8| Bool) (|hbv_ULTIMATE.start_L-1_1_Array_Int_Int| (Array Int Int)) (|hbv_ULTIMATE.start_L15_32_Int| Int) (|.x.1225| Int) (|.x.1227| (Array Int Int)) (|.x.1229| (Array Int Int)) (|.x.1231| Int) (|.x.1235| Int) (|.x.1233| (Array Int Int)) (|.x.1239| Int) (|.x.1250| Int) (|.x.1241| Int) (|.x.1242| Int) (|.x.1248| Int) (|.x.1246| Int) (|.x.1257| Int) (|.x.1258| Int) (|hhv_ULTIMATE.start_ULTIMATE.startEXIT_40_Bool| Bool) (|.x.1253| Int) (|.x.1243| Int) (|.x.1236| Int) (|.x.1226| (Array Int Int)) (|.x.1259| Int) (|.loc.9| Bool) (|.loc.11| Bool) (|.loc.10| Bool) (|.x.1247| Int) (|.x.1249| Int) (|.x.1245| Int) (|.x.1238| Int) (|.x.1237| Int) (|.x.1252| Int) (|.x.1260| Int) (|.x.1256| Int) (|.x.1228| (Array Int Int)) (|.x.1251| Int) (|.x.1255| Int) (|.x.1244| Int) (|.loc.12| Bool) (|.x.1254| Int) (|.x.1261| Int) (|.x.1240| Int) (|.x.1262| Int) (|.x.1264| Int) (|.x.1263| Int) (|.x.1230| Int) (|.x.1234| Int) (|.x.1232| (Array Int Int)) (|.xtv.1| (Array Int Int)) (|.xtv.2| Int)) (=> (state |hhv_ULTIMATE.start_L15-2_0_Int| |hhv_ULTIMATE.start_L15-2_1_Array_Int_Int| |hhv_ULTIMATE.start_L15-2_2_Array_Int_Int| |hhv_ULTIMATE.start_L15-2_3_Array_Int_Array_Int_Int| |hhv_ULTIMATE.start_L15-2_4_Array_Int_Array_Int_Int| |hhv_ULTIMATE.start_L15-2_5_Int| |hhv_ULTIMATE.start_L15-2_6_Int| |hhv_ULTIMATE.start_L15-2_7_Array_Int_Int| |hhv_ULTIMATE.start_L15-2_8_Array_Int_Int| |hhv_ULTIMATE.start_L15-2_9_Int| |hhv_ULTIMATE.start_L15-2_10_Int| |hhv_ULTIMATE.start_L15-2_11_Int| |hhv_ULTIMATE.start_L15-2_12_Int| |hhv_ULTIMATE.start_L15-2_13_Int| |hhv_ULTIMATE.start_L15-2_14_Int| |hhv_ULTIMATE.start_L15-2_15_Int| |hhv_ULTIMATE.start_L15-2_16_Int| |hhv_ULTIMATE.start_L15-2_17_Int| |hhv_ULTIMATE.start_L15-2_18_Int| |hhv_ULTIMATE.start_L15-2_19_Int| |hhv_ULTIMATE.start_L15-2_20_Int| |hhv_ULTIMATE.start_L15-2_21_Int| |hhv_ULTIMATE.start_L15-2_22_Int| |hhv_ULTIMATE.start_L15-2_23_Int| |hhv_ULTIMATE.start_L15-2_24_Int| |hhv_ULTIMATE.start_L15-2_25_Int| |hhv_ULTIMATE.start_L15-2_26_Int| |hhv_ULTIMATE.start_L15-2_27_Int| |hhv_ULTIMATE.start_L15-2_28_Int| |hhv_ULTIMATE.start_L15-2_29_Int| |hhv_ULTIMATE.start_L15-2_30_Int| |hhv_ULTIMATE.start_L15-2_31_Int| |hbv_ULTIMATE.start_L12-14_32_Int| |hhv_ULTIMATE.start_L15-2_33_Int| |hhv_ULTIMATE.start_L15-2_34_Int| |hhv_ULTIMATE.start_L15-2_35_Int| |hhv_ULTIMATE.start_L15-2_36_Int| |hhv_ULTIMATE.start_L15-2_37_Int| |hhv_ULTIMATE.start_L15-2_38_Int| |hhv_ULTIMATE.start_L15-2_39_Int| |hhv_ULTIMATE.start_L15-2_40_Bool| |.loc.5| |.loc.6| |.loc.7| |.loc.8| |hbv_ULTIMATE.start_L-1_1_Array_Int_Int| |hbv_ULTIMATE.start_L15_32_Int|) (not (and hhv_ULTIMATE.start_L15-2_40_Bool (and .loc.8 (and .loc.7 (and (not .loc.6) (not .loc.5)))))))))
(check-sat)
